N = 9;
H = 6;
T = 2;

avail = array3d(1..N, 1..H, 1..T, [5, 10, 2, 6, 9, 10, 9, 4, 0, 0, 7, 6, 1, 4, 6, 1, 5, 3, 1, 10, 3, 2, 2, 9, 0, 9, 5, 5, 8, 7, 7, 6, 2, 1, 9, 2, 2, 3, 0, 4, 2, 3, 1, 6, 6, 4, 3, 8, 9, 3, 8, 2, 1, 10, 5, 9, 1, 10, 0, 3, 1, 6, 7, 0, 0, 7, 7, 7, 5, 3, 7, 6, 5, 4, 9, 2, 6, 3, 6, 9, 4, 0, 3, 4, 6, 9, 7, 3, 9, 1, 10, 3, 5, 0, 7, 10, 10, 9, 3, 3, 9, 0, 7, 9, 8, 1, 0, 5]);

r = array2d(1..H, 1..T, [4, 2, 5, 1, 2, 0, 4, 2, 1, 4, 2, 2]);
